\ This file has been generated by DOcplex
\ ENCODING=ISO-8859-1
\Problem name: 2generals problem

Maximize
 obj: - 6 aj_0 - 15 aj_1 - 15 aj_2 - 12.500000000000 aj_3
Subject To
 c1: - 8.500000000000 aj_0 - 8.500000000000 aj_1 - 12.500000000000 aj_2
     - 14.500000000000 aj_3 + 8.500000000000 a0_0 + 12.500000000000 a0_1 >= 0
 c2: - 8.500000000000 aj_0 - 8.500000000000 aj_1 - 12.500000000000 aj_2
     - 14.500000000000 aj_3 + 8.500000000000 a0_0 + 14.500000000000 a0_1 >= 0
 c3: aj_0 + aj_1 - a0_0 = 0
 c4: aj_2 + aj_3 - a0_1 = 0
 c5: aj_0 + aj_1 + aj_2 + aj_3 = 1
 c6: aj_0 + aj_2 - a1_0 = 0
 c7: aj_1 + aj_3 - a1_1 = 0

Bounds
       a0_0 <= 1
       a0_1 <= 1
 0 <= a1_0 <= 1
 0 <= a1_1 <= 1
       aj_0 <= 1
       aj_1 <= 1
       aj_2 <= 1
       aj_3 <= 1

Binaries
 a1_0 a1_1
End
